\ Model Variable Bin Packing Problem with Different Raw Material Lengths
\ LP format - for model browsing. Use MPS format to capture full model detail.
Minimize
  413.1271282810714 y[0,0] + 207.9364848632718 y[0,1]
   + 150.1892485710655 y[0,2] + 413.1271282810714 y[1,0]
   + 207.9364848632718 y[1,1] + 150.1892485710655 y[1,2]
   + 413.1271282810714 y[2,0] + 207.9364848632718 y[2,1]
   + 150.1892485710655 y[2,2] + 413.1271282810714 y[3,0]
   + 207.9364848632718 y[3,1] + 150.1892485710655 y[3,2]
   + 413.1271282810714 y[4,0] + 207.9364848632718 y[4,1]
   + 150.1892485710655 y[4,2]
Subject To
 R0: - y[0,0] + x[0,0,0] + x[0,1,0] + x[0,2,0] + x[0,3,0] + x[0,4,0] <= 0
 R1: - y[0,1] + x[0,0,1] + x[0,1,1] + x[0,2,1] + x[0,3,1] + x[0,4,1] <= 0
 R2: - y[0,2] + x[0,0,2] + x[0,1,2] + x[0,2,2] + x[0,3,2] + x[0,4,2] <= 0
 R3: - y[1,0] + x[1,0,0] + x[1,1,0] + x[1,2,0] + x[1,3,0] + x[1,4,0] <= 0
 R4: - y[1,1] + x[1,0,1] + x[1,1,1] + x[1,2,1] + x[1,3,1] + x[1,4,1] <= 0
 R5: - y[1,2] + x[1,0,2] + x[1,1,2] + x[1,2,2] + x[1,3,2] + x[1,4,2] <= 0
 R6: - y[2,0] + x[2,0,0] + x[2,1,0] + x[2,2,0] + x[2,3,0] + x[2,4,0] <= 0
 R7: - y[2,1] + x[2,0,1] + x[2,1,1] + x[2,2,1] + x[2,3,1] + x[2,4,1] <= 0
 R8: - y[2,2] + x[2,0,2] + x[2,1,2] + x[2,2,2] + x[2,3,2] + x[2,4,2] <= 0
 R9: - y[3,0] + x[3,0,0] + x[3,1,0] + x[3,2,0] + x[3,3,0] + x[3,4,0] <= 0
 R10: - y[3,1] + x[3,0,1] + x[3,1,1] + x[3,2,1] + x[3,3,1] + x[3,4,1] <= 0
 R11: - y[3,2] + x[3,0,2] + x[3,1,2] + x[3,2,2] + x[3,3,2] + x[3,4,2] <= 0
 R12: - y[4,0] + x[4,0,0] + x[4,1,0] + x[4,2,0] + x[4,3,0] + x[4,4,0] <= 0
 R13: - y[4,1] + x[4,0,1] + x[4,1,1] + x[4,2,1] + x[4,3,1] + x[4,4,1] <= 0
 R14: - y[4,2] + x[4,0,2] + x[4,1,2] + x[4,2,2] + x[4,3,2] + x[4,4,2] <= 0
 R15: x[0,0,0] + x[0,0,1] + x[0,0,2] + x[1,0,0] + x[1,0,1] + x[1,0,2]
   + x[2,0,0] + x[2,0,1] + x[2,0,2] + x[3,0,0] + x[3,0,1] + x[3,0,2]
   + x[4,0,0] + x[4,0,1] + x[4,0,2] >= 1
 R16: x[0,1,0] + x[0,1,1] + x[0,1,2] + x[1,1,0] + x[1,1,1] + x[1,1,2]
   + x[2,1,0] + x[2,1,1] + x[2,1,2] + x[3,1,0] + x[3,1,1] + x[3,1,2]
   + x[4,1,0] + x[4,1,1] + x[4,1,2] >= 1
 R17: x[0,2,0] + x[0,2,1] + x[0,2,2] + x[1,2,0] + x[1,2,1] + x[1,2,2]
   + x[2,2,0] + x[2,2,1] + x[2,2,2] + x[3,2,0] + x[3,2,1] + x[3,2,2]
   + x[4,2,0] + x[4,2,1] + x[4,2,2] >= 1
 R18: x[0,3,0] + x[0,3,1] + x[0,3,2] + x[1,3,0] + x[1,3,1] + x[1,3,2]
   + x[2,3,0] + x[2,3,1] + x[2,3,2] + x[3,3,0] + x[3,3,1] + x[3,3,2]
   + x[4,3,0] + x[4,3,1] + x[4,3,2] >= 1
 R19: x[0,4,0] + x[0,4,1] + x[0,4,2] + x[1,4,0] + x[1,4,1] + x[1,4,2]
   + x[2,4,0] + x[2,4,1] + x[2,4,2] + x[3,4,0] + x[3,4,1] + x[3,4,2]
   + x[4,4,0] + x[4,4,1] + x[4,4,2] >= 1
Bounds
Binaries
 y[0,0] y[0,1] y[0,2] y[1,0] y[1,1] y[1,2] y[2,0] y[2,1] y[2,2] y[3,0]
 y[3,1] y[3,2] y[4,0] y[4,1] y[4,2]
Generals
 x[0,0,0] x[0,0,1] x[0,0,2] x[0,1,0] x[0,1,1] x[0,1,2] x[0,2,0] x[0,2,1]
 x[0,2,2] x[0,3,0] x[0,3,1] x[0,3,2] x[0,4,0] x[0,4,1] x[0,4,2] x[1,0,0]
 x[1,0,1] x[1,0,2] x[1,1,0] x[1,1,1] x[1,1,2] x[1,2,0] x[1,2,1] x[1,2,2]
 x[1,3,0] x[1,3,1] x[1,3,2] x[1,4,0] x[1,4,1] x[1,4,2] x[2,0,0] x[2,0,1]
 x[2,0,2] x[2,1,0] x[2,1,1] x[2,1,2] x[2,2,0] x[2,2,1] x[2,2,2] x[2,3,0]
 x[2,3,1] x[2,3,2] x[2,4,0] x[2,4,1] x[2,4,2] x[3,0,0] x[3,0,1] x[3,0,2]
 x[3,1,0] x[3,1,1] x[3,1,2] x[3,2,0] x[3,2,1] x[3,2,2] x[3,3,0] x[3,3,1]
 x[3,3,2] x[3,4,0] x[3,4,1] x[3,4,2] x[4,0,0] x[4,0,1] x[4,0,2] x[4,1,0]
 x[4,1,1] x[4,1,2] x[4,2,0] x[4,2,1] x[4,2,2] x[4,3,0] x[4,3,1] x[4,3,2]
 x[4,4,0] x[4,4,1] x[4,4,2]
End
